<?xml version="1.0" encoding="UTF-8"?><osil xmlns="os.optimizationservices.org"   xmlns:xsi="http://www.w3.org/2001/XMLSchema-instance" xsi:schemaLocation="os.optimizationservices.org http://www.optimizationservices.org/schemas/2.0/OSiL.xsd" ><instanceHeader><name>q_20_4_50_5</name></instanceHeader><instanceData><variables numberOfVariables="20"><var name="x1" ub="1"/><var name="x2" ub="1"/><var name="x3" ub="1"/><var name="x4" ub="1"/><var name="x5" ub="1"/><var name="x6" ub="1"/><var name="x7" ub="1"/><var name="x8" ub="1"/><var name="x9" ub="1"/><var name="x10" ub="1"/><var name="x11" ub="1"/><var name="x12" ub="1"/><var name="x13" ub="1"/><var name="x14" ub="1"/><var name="x15" ub="1"/><var name="x16" ub="1"/><var name="x17" ub="1"/><var name="x18" ub="1"/><var name="x19" ub="1"/><var name="x20" ub="1"/></variables><objectives numberOfObjectives="1"><obj maxOrMin="min" name="defObj_x21" numberOfObjCoef="20"><coef idx="0">.5771</coef><coef idx="1">.3081</coef><coef idx="2">9.09e-2</coef><coef idx="3">.9055</coef><coef idx="4">.776</coef><coef idx="5">-.8326</coef><coef idx="6">.633</coef><coef idx="7">.8591</coef><coef idx="8">-.3945</coef><coef idx="9">.4562</coef><coef idx="10">-.3822</coef><coef idx="11">.6947</coef><coef idx="12">-.1666</coef><coef idx="13">.8415</coef><coef idx="14">.5483</coef><coef idx="15">-.7353</coef><coef idx="16">.1118</coef><coef idx="17">-3.23e-2</coef><coef idx="18">-.3556</coef><coef idx="19">.7519</coef></obj></objectives><constraints numberOfConstraints="4"><con name="e2" ub="95.694"/><con name="e3" ub="21.024"/><con name="e4" ub=".529"/><con name="e5" ub="41.228"/></constraints><linearConstraintCoefficients numberOfValues="80"><start><el mult="5" incr="20">0</el></start><colIdx><el mult="20" incr="1">0</el><el mult="20" incr="1">0</el><el mult="20" incr="1">0</el><el mult="20" incr="1">0</el></colIdx><value><el>.9012</el><el>-.9689</el><el>.3845</el><el>-2.38e-2</el><el>-3.23e-2</el><el>.7596</el><el>-.2669</el><el>.9424</el><el>.8962</el><el>.7098</el><el>.3377</el><el>-.1729</el><el>.8505</el><el>9.85e-2</el><el>-.1821</el><el>.4377</el><el>-.4439</el><el>.8841</el><el>.5759</el><el>-.1448</el><el>.5684</el><el>-.2999</el><el>-.2691</el><el>-.5111</el><el>.6968</el><el>.6816</el><el>.9654</el><el>.3204</el><el>.8281</el><el>8.19e-2</el><el>-.6689</el><el>.1937</el><el>-.3142</el><el>-.9861</el><el>.5543</el><el>.7947</el><el>-.7712</el><el>-.8626</el><el>-.4114</el><el>.6527</el><el>-.7354</el><el>.2347</el><el>.5356</el><el>.3745</el><el>-.5577</el><el>-1.83e-2</el><el>1.5e-2</el><el>-.8012</el><el>.5088</el><el>.9962</el><el>.5418</el><el>-.9215</el><el>6.55e-2</el><el>-.6586</el><el>-.6866</el><el>-.9789</el><el>-.637</el><el>-.3182</el><el>-.5291</el><el>.9856</el><el>.9166</el><el>.1648</el><el>-.1704</el><el>.8156</el><el>-.6195</el><el>-.1848</el><el>-.7269</el><el>-.7463</el><el>.9915</el><el>-.9485</el><el>.7561</el><el>.5456</el><el>.6506</el><el>-5.8e-2</el><el>-.2014</el><el>-.7284</el><el>-.4896</el><el>.6468</el><el>-.3403</el><el>.6566</el></value></linearConstraintCoefficients><quadraticCoefficients  numberOfQuadraticTerms="525" ><qTerm  idx="-1"  idxOne="0"  idxTwo="6"  coef=".2067"/><qTerm  idx="-1"  idxOne="0"  idxTwo="7"  coef=".7761"/><qTerm  idx="-1"  idxOne="0"  idxTwo="12"  coef="1.4485"/><qTerm  idx="-1"  idxOne="0"  idxTwo="16"  coef="-2.4e-2"/><qTerm  idx="-1"  idxOne="0"  idxTwo="17"  coef="-.8893"/><qTerm  idx="-1"  idxOne="1"  idxTwo="1"  coef="-.3898"/><qTerm  idx="-1"  idxOne="1"  idxTwo="2"  coef="-.2798"/><qTerm  idx="-1"  idxOne="1"  idxTwo="3"  coef=".4914"/><qTerm  idx="-1"  idxOne="1"  idxTwo="5"  coef="-1.4574"/><qTerm  idx="-1"  idxOne="1"  idxTwo="6"  coef="-1.1778"/><qTerm  idx="-1"  idxOne="1"  idxTwo="9"  coef="-.8551"/><qTerm  idx="-1"  idxOne="1"  idxTwo="10"  coef="-2.1e-2"/><qTerm  idx="-1"  idxOne="1"  idxTwo="12"  coef=".4996"/><qTerm  idx="-1"  idxOne="1"  idxTwo="13"  coef=".8745"/><qTerm  idx="-1"  idxOne="1"  idxTwo="14"  coef="-.9703"/><qTerm  idx="-1"  idxOne="1"  idxTwo="16"  coef="-8.7e-3"/><qTerm  idx="-1"  idxOne="1"  idxTwo="19"  coef="-.3129"/><qTerm  idx="-1"  idxOne="2"  idxTwo="3"  coef=".2618"/><qTerm  idx="-1"  idxOne="2"  idxTwo="7"  coef="1.3837"/><qTerm  idx="-1"  idxOne="2"  idxTwo="9"  coef="-.9522"/><qTerm  idx="-1"  idxOne="2"  idxTwo="11"  coef="-1.8217"/><qTerm  idx="-1"  idxOne="2"  idxTwo="15"  coef="1.3376"/><qTerm  idx="-1"  idxOne="2"  idxTwo="16"  coef="-.6956"/><qTerm  idx="-1"  idxOne="2"  idxTwo="19"  coef=".9484"/><qTerm  idx="-1"  idxOne="3"  idxTwo="3"  coef="-1.1529"/><qTerm  idx="-1"  idxOne="3"  idxTwo="6"  coef="1.3805"/><qTerm  idx="-1"  idxOne="3"  idxTwo="8"  coef="1.6003"/><qTerm  idx="-1"  idxOne="3"  idxTwo="9"  coef="-.1894"/><qTerm  idx="-1"  idxOne="3"  idxTwo="13"  coef=".691"/><qTerm  idx="-1"  idxOne="4"  idxTwo="4"  coef=".6569"/><qTerm  idx="-1"  idxOne="4"  idxTwo="5"  coef="-.7435"/><qTerm  idx="-1"  idxOne="4"  idxTwo="6"  coef="-.9216"/><qTerm  idx="-1"  idxOne="4"  idxTwo="7"  coef="-1.3444"/><qTerm  idx="-1"  idxOne="4"  idxTwo="9"  coef="3.34e-2"/><qTerm  idx="-1"  idxOne="4"  idxTwo="10"  coef=".8791"/><qTerm  idx="-1"  idxOne="4"  idxTwo="11"  coef="1.7524"/><qTerm  idx="-1"  idxOne="4"  idxTwo="12"  coef="-.7114"/><qTerm  idx="-1"  idxOne="4"  idxTwo="13"  coef="-.3647"/><qTerm  idx="-1"  idxOne="4"  idxTwo="15"  coef="-1.8066"/><qTerm  idx="-1"  idxOne="4"  idxTwo="18"  coef=".5665"/><qTerm  idx="-1"  idxOne="5"  idxTwo="6"  coef=".1504"/><qTerm  idx="-1"  idxOne="5"  idxTwo="8"  coef="-1.3506"/><qTerm  idx="-1"  idxOne="5"  idxTwo="10"  coef="1.4996"/><qTerm  idx="-1"  idxOne="5"  idxTwo="12"  coef="1.802"/><qTerm  idx="-1"  idxOne="5"  idxTwo="14"  coef=".369"/><qTerm  idx="-1"  idxOne="5"  idxTwo="15"  coef="-1.9177"/><qTerm  idx="-1"  idxOne="5"  idxTwo="17"  coef=".4783"/><qTerm  idx="-1"  idxOne="5"  idxTwo="18"  coef="-1.4"/><qTerm  idx="-1"  idxOne="6"  idxTwo="6"  coef="1.294"/><qTerm  idx="-1"  idxOne="6"  idxTwo="7"  coef="1.2769"/><qTerm  idx="-1"  idxOne="6"  idxTwo="8"  coef="-.9813"/><qTerm  idx="-1"  idxOne="6"  idxTwo="9"  coef="-.6634"/><qTerm  idx="-1"  idxOne="6"  idxTwo="11"  coef=".6121"/><qTerm  idx="-1"  idxOne="6"  idxTwo="14"  coef="-1.6195"/><qTerm  idx="-1"  idxOne="6"  idxTwo="16"  coef="1.1526"/><qTerm  idx="-1"  idxOne="6"  idxTwo="18"  coef="1.2167"/><qTerm  idx="-1"  idxOne="7"  idxTwo="8"  coef=".2774"/><qTerm  idx="-1"  idxOne="7"  idxTwo="9"  coef="-.1556"/><qTerm  idx="-1"  idxOne="7"  idxTwo="10"  coef="1.8566"/><qTerm  idx="-1"  idxOne="7"  idxTwo="14"  coef="-1.2358"/><qTerm  idx="-1"  idxOne="7"  idxTwo="15"  coef="1.1728"/><qTerm  idx="-1"  idxOne="7"  idxTwo="17"  coef="-.9589"/><qTerm  idx="-1"  idxOne="7"  idxTwo="18"  coef="-.203"/><qTerm  idx="-1"  idxOne="7"  idxTwo="19"  coef="-.7147"/><qTerm  idx="-1"  idxOne="8"  idxTwo="12"  coef="1.3772"/><qTerm  idx="-1"  idxOne="8"  idxTwo="13"  coef="-.7404"/><qTerm  idx="-1"  idxOne="8"  idxTwo="15"  coef=".164"/><qTerm  idx="-1"  idxOne="8"  idxTwo="17"  coef="-1.1925"/><qTerm  idx="-1"  idxOne="8"  idxTwo="19"  coef="-.765"/><qTerm  idx="-1"  idxOne="9"  idxTwo="10"  coef="-1.3629"/><qTerm  idx="-1"  idxOne="9"  idxTwo="11"  coef="1.1647"/><qTerm  idx="-1"  idxOne="9"  idxTwo="12"  coef=".9096"/><qTerm  idx="-1"  idxOne="9"  idxTwo="14"  coef="-.913"/><qTerm  idx="-1"  idxOne="9"  idxTwo="15"  coef="-.5981"/><qTerm  idx="-1"  idxOne="9"  idxTwo="16"  coef="-1.3307"/><qTerm  idx="-1"  idxOne="9"  idxTwo="17"  coef="-1.4915"/><qTerm  idx="-1"  idxOne="10"  idxTwo="13"  coef="1.0232"/><qTerm  idx="-1"  idxOne="10"  idxTwo="14"  coef="-.3117"/><qTerm  idx="-1"  idxOne="10"  idxTwo="15"  coef="-6.94e-2"/><qTerm  idx="-1"  idxOne="10"  idxTwo="16"  coef=".208"/><qTerm  idx="-1"  idxOne="10"  idxTwo="18"  coef="1.273"/><qTerm  idx="-1"  idxOne="11"  idxTwo="12"  coef="1.4908"/><qTerm  idx="-1"  idxOne="11"  idxTwo="13"  coef="-1.7076"/><qTerm  idx="-1"  idxOne="11"  idxTwo="15"  coef="1.6955"/><qTerm  idx="-1"  idxOne="11"  idxTwo="16"  coef="-.9847"/><qTerm  idx="-1"  idxOne="11"  idxTwo="17"  coef="1.1123"/><qTerm  idx="-1"  idxOne="12"  idxTwo="12"  coef="-.7592"/><qTerm  idx="-1"  idxOne="12"  idxTwo="13"  coef="-.2667"/><qTerm  idx="-1"  idxOne="12"  idxTwo="16"  coef="1.8888"/><qTerm  idx="-1"  idxOne="12"  idxTwo="17"  coef="1.8214"/><qTerm  idx="-1"  idxOne="12"  idxTwo="18"  coef=".6042"/><qTerm  idx="-1"  idxOne="12"  idxTwo="19"  coef="-1.0505"/><qTerm  idx="-1"  idxOne="13"  idxTwo="13"  coef="1.03"/><qTerm  idx="-1"  idxOne="13"  idxTwo="15"  coef="-1.6318"/><qTerm  idx="-1"  idxOne="13"  idxTwo="17"  coef="-.6681"/><qTerm  idx="-1"  idxOne="13"  idxTwo="18"  coef="-1.4259"/><qTerm  idx="-1"  idxOne="14"  idxTwo="15"  coef=".9616"/><qTerm  idx="-1"  idxOne="14"  idxTwo="16"  coef="-3.15e-2"/><qTerm  idx="-1"  idxOne="14"  idxTwo="17"  coef=".4216"/><qTerm  idx="-1"  idxOne="14"  idxTwo="18"  coef="-1.1601"/><qTerm  idx="-1"  idxOne="15"  idxTwo="16"  coef="-1.121"/><qTerm  idx="-1"  idxOne="15"  idxTwo="18"  coef="1.5277"/><qTerm  idx="-1"  idxOne="16"  idxTwo="17"  coef="-1.4636"/><qTerm  idx="-1"  idxOne="16"  idxTwo="19"  coef=".7123"/><qTerm  idx="-1"  idxOne="19"  idxTwo="19"  coef="-1.0894"/><qTerm  idx="0"  idxOne="0"  idxTwo="1"  coef="-5.34e-2"/><qTerm  idx="0"  idxOne="0"  idxTwo="2"  coef="-1.8796"/><qTerm  idx="0"  idxOne="0"  idxTwo="3"  coef="1.3253"/><qTerm  idx="0"  idxOne="0"  idxTwo="6"  coef="1.0836"/><qTerm  idx="0"  idxOne="0"  idxTwo="8"  coef="1.1432"/><qTerm  idx="0"  idxOne="0"  idxTwo="16"  coef=".655"/><qTerm  idx="0"  idxOne="0"  idxTwo="17"  coef="-.2606"/><qTerm  idx="0"  idxOne="1"  idxTwo="3"  coef="-4.78e-2"/><qTerm  idx="0"  idxOne="1"  idxTwo="5"  coef="-2.64e-2"/><qTerm  idx="0"  idxOne="1"  idxTwo="7"  coef="-.4686"/><qTerm  idx="0"  idxOne="1"  idxTwo="9"  coef="-2.44e-2"/><qTerm  idx="0"  idxOne="1"  idxTwo="11"  coef="1.3018"/><qTerm  idx="0"  idxOne="1"  idxTwo="16"  coef=".1899"/><qTerm  idx="0"  idxOne="1"  idxTwo="17"  coef="1.8407"/><qTerm  idx="0"  idxOne="1"  idxTwo="18"  coef="-1.9677"/><qTerm  idx="0"  idxOne="2"  idxTwo="3"  coef="1.2939"/><qTerm  idx="0"  idxOne="2"  idxTwo="4"  coef="-.1409"/><qTerm  idx="0"  idxOne="2"  idxTwo="6"  coef=".7634"/><qTerm  idx="0"  idxOne="2"  idxTwo="8"  coef="-1.6307"/><qTerm  idx="0"  idxOne="2"  idxTwo="10"  coef="-1.8524"/><qTerm  idx="0"  idxOne="2"  idxTwo="11"  coef="-1.2073"/><qTerm  idx="0"  idxOne="2"  idxTwo="12"  coef="1.5069"/><qTerm  idx="0"  idxOne="2"  idxTwo="14"  coef="4.34e-2"/><qTerm  idx="0"  idxOne="2"  idxTwo="16"  coef="-1.6857"/><qTerm  idx="0"  idxOne="2"  idxTwo="18"  coef="1.9709"/><qTerm  idx="0"  idxOne="2"  idxTwo="19"  coef="1.1471"/><qTerm  idx="0"  idxOne="3"  idxTwo="5"  coef="1.9235"/><qTerm  idx="0"  idxOne="3"  idxTwo="8"  coef=".5774"/><qTerm  idx="0"  idxOne="3"  idxTwo="11"  coef=".8365"/><qTerm  idx="0"  idxOne="3"  idxTwo="12"  coef="-.7692"/><qTerm  idx="0"  idxOne="3"  idxTwo="14"  coef="-.4258"/><qTerm  idx="0"  idxOne="3"  idxTwo="15"  coef="7.89e-2"/><qTerm  idx="0"  idxOne="3"  idxTwo="17"  coef="-.9371"/><qTerm  idx="0"  idxOne="3"  idxTwo="18"  coef="-.8103"/><qTerm  idx="0"  idxOne="4"  idxTwo="5"  coef="1.45e-2"/><qTerm  idx="0"  idxOne="4"  idxTwo="9"  coef=".5374"/><qTerm  idx="0"  idxOne="4"  idxTwo="12"  coef="-.6986"/><qTerm  idx="0"  idxOne="4"  idxTwo="13"  coef=".868"/><qTerm  idx="0"  idxOne="4"  idxTwo="15"  coef=".9406"/><qTerm  idx="0"  idxOne="4"  idxTwo="17"  coef="-.2696"/><qTerm  idx="0"  idxOne="4"  idxTwo="18"  coef="-.3985"/><qTerm  idx="0"  idxOne="5"  idxTwo="5"  coef=".8933"/><qTerm  idx="0"  idxOne="5"  idxTwo="6"  coef="-1.3928"/><qTerm  idx="0"  idxOne="5"  idxTwo="10"  coef="-.2899"/><qTerm  idx="0"  idxOne="5"  idxTwo="12"  coef="-.4933"/><qTerm  idx="0"  idxOne="5"  idxTwo="13"  coef="1.4751"/><qTerm  idx="0"  idxOne="5"  idxTwo="15"  coef="1.3401"/><qTerm  idx="0"  idxOne="5"  idxTwo="17"  coef=".1484"/><qTerm  idx="0"  idxOne="6"  idxTwo="7"  coef="-.7204"/><qTerm  idx="0"  idxOne="6"  idxTwo="8"  coef="-.1657"/><qTerm  idx="0"  idxOne="6"  idxTwo="11"  coef=".4425"/><qTerm  idx="0"  idxOne="6"  idxTwo="12"  coef="-1.013"/><qTerm  idx="0"  idxOne="6"  idxTwo="13"  coef="1.343"/><qTerm  idx="0"  idxOne="6"  idxTwo="14"  coef=".9931"/><qTerm  idx="0"  idxOne="6"  idxTwo="15"  coef="1.4889"/><qTerm  idx="0"  idxOne="6"  idxTwo="17"  coef="-1.0689"/><qTerm  idx="0"  idxOne="6"  idxTwo="18"  coef=".6874"/><qTerm  idx="0"  idxOne="7"  idxTwo="8"  coef="-.1335"/><qTerm  idx="0"  idxOne="7"  idxTwo="9"  coef="-1.8756"/><qTerm  idx="0"  idxOne="7"  idxTwo="10"  coef="-.3524"/><qTerm  idx="0"  idxOne="7"  idxTwo="11"  coef=".6224"/><qTerm  idx="0"  idxOne="7"  idxTwo="12"  coef="-.4145"/><qTerm  idx="0"  idxOne="7"  idxTwo="13"  coef=".7224"/><qTerm  idx="0"  idxOne="7"  idxTwo="14"  coef="-.1875"/><qTerm  idx="0"  idxOne="7"  idxTwo="15"  coef="-.8383"/><qTerm  idx="0"  idxOne="7"  idxTwo="17"  coef="1.6296"/><qTerm  idx="0"  idxOne="7"  idxTwo="18"  coef="1.885"/><qTerm  idx="0"  idxOne="8"  idxTwo="10"  coef=".5962"/><qTerm  idx="0"  idxOne="8"  idxTwo="14"  coef="-9.26e-2"/><qTerm  idx="0"  idxOne="8"  idxTwo="16"  coef="1.0551"/><qTerm  idx="0"  idxOne="8"  idxTwo="17"  coef="-.407"/><qTerm  idx="0"  idxOne="8"  idxTwo="18"  coef="-1.6575"/><qTerm  idx="0"  idxOne="9"  idxTwo="10"  coef="1.2293"/><qTerm  idx="0"  idxOne="9"  idxTwo="11"  coef=".4759"/><qTerm  idx="0"  idxOne="9"  idxTwo="13"  coef="1.0789"/><qTerm  idx="0"  idxOne="9"  idxTwo="14"  coef=".4093"/><qTerm  idx="0"  idxOne="9"  idxTwo="16"  coef=".3868"/><qTerm  idx="0"  idxOne="10"  idxTwo="11"  coef="-1.8854"/><qTerm  idx="0"  idxOne="10"  idxTwo="12"  coef="-1.3785"/><qTerm  idx="0"  idxOne="10"  idxTwo="15"  coef="1.0211"/><qTerm  idx="0"  idxOne="10"  idxTwo="16"  coef="1.8366"/><qTerm  idx="0"  idxOne="10"  idxTwo="18"  coef="1.0336"/><qTerm  idx="0"  idxOne="10"  idxTwo="19"  coef="1.4634"/><qTerm  idx="0"  idxOne="11"  idxTwo="11"  coef="1.613"/><qTerm  idx="0"  idxOne="11"  idxTwo="13"  coef=".266"/><qTerm  idx="0"  idxOne="11"  idxTwo="16"  coef="1.5691"/><qTerm  idx="0"  idxOne="11"  idxTwo="18"  coef="-.3999"/><qTerm  idx="0"  idxOne="12"  idxTwo="13"  coef="1.9226"/><qTerm  idx="0"  idxOne="12"  idxTwo="16"  coef="-7.54e-2"/><qTerm  idx="0"  idxOne="12"  idxTwo="17"  coef="-1.9974"/><qTerm  idx="0"  idxOne="13"  idxTwo="14"  coef=".4264"/><qTerm  idx="0"  idxOne="13"  idxTwo="16"  coef="1.4172"/><qTerm  idx="0"  idxOne="13"  idxTwo="17"  coef=".8748"/><qTerm  idx="0"  idxOne="13"  idxTwo="19"  coef="1.9382"/><qTerm  idx="0"  idxOne="14"  idxTwo="16"  coef="-1.1319"/><qTerm  idx="0"  idxOne="14"  idxTwo="18"  coef="-.632"/><qTerm  idx="0"  idxOne="14"  idxTwo="19"  coef="-.3981"/><qTerm  idx="0"  idxOne="15"  idxTwo="17"  coef=".1839"/><qTerm  idx="0"  idxOne="16"  idxTwo="16"  coef="-1.5353"/><qTerm  idx="0"  idxOne="16"  idxTwo="17"  coef="-.1994"/><qTerm  idx="0"  idxOne="16"  idxTwo="18"  coef=".5473"/><qTerm  idx="0"  idxOne="16"  idxTwo="19"  coef=".6157"/><qTerm  idx="0"  idxOne="17"  idxTwo="17"  coef="-1.0042"/><qTerm  idx="0"  idxOne="17"  idxTwo="18"  coef="1.783"/><qTerm  idx="0"  idxOne="18"  idxTwo="19"  coef="1.4794"/><qTerm  idx="1"  idxOne="0"  idxTwo="1"  coef=".2136"/><qTerm  idx="1"  idxOne="0"  idxTwo="2"  coef="1.3417"/><qTerm  idx="1"  idxOne="0"  idxTwo="4"  coef="1.0682"/><qTerm  idx="1"  idxOne="0"  idxTwo="5"  coef="-1.4439"/><qTerm  idx="1"  idxOne="0"  idxTwo="7"  coef="-1.4386"/><qTerm  idx="1"  idxOne="0"  idxTwo="9"  coef="1.0478"/><qTerm  idx="1"  idxOne="0"  idxTwo="10"  coef="-.7969"/><qTerm  idx="1"  idxOne="0"  idxTwo="14"  coef="-1.9872"/><qTerm  idx="1"  idxOne="0"  idxTwo="19"  coef="-.8406"/><qTerm  idx="1"  idxOne="1"  idxTwo="1"  coef="1.5235"/><qTerm  idx="1"  idxOne="1"  idxTwo="2"  coef="1.3208"/><qTerm  idx="1"  idxOne="1"  idxTwo="3"  coef=".4074"/><qTerm  idx="1"  idxOne="1"  idxTwo="7"  coef="-1.9696"/><qTerm  idx="1"  idxOne="1"  idxTwo="8"  coef=".8674"/><qTerm  idx="1"  idxOne="1"  idxTwo="10"  coef="-.1568"/><qTerm  idx="1"  idxOne="1"  idxTwo="15"  coef=".8297"/><qTerm  idx="1"  idxOne="2"  idxTwo="3"  coef="-1.7192"/><qTerm  idx="1"  idxOne="2"  idxTwo="4"  coef="1.1902"/><qTerm  idx="1"  idxOne="2"  idxTwo="5"  coef="1.3366"/><qTerm  idx="1"  idxOne="2"  idxTwo="6"  coef="-1.0319"/><qTerm  idx="1"  idxOne="2"  idxTwo="8"  coef="-.5799"/><qTerm  idx="1"  idxOne="2"  idxTwo="9"  coef="-1.2757"/><qTerm  idx="1"  idxOne="2"  idxTwo="10"  coef="1.0675"/><qTerm  idx="1"  idxOne="2"  idxTwo="11"  coef="1.1578"/><qTerm  idx="1"  idxOne="2"  idxTwo="12"  coef="-.4884"/><qTerm  idx="1"  idxOne="2"  idxTwo="15"  coef="-1.6614"/><qTerm  idx="1"  idxOne="2"  idxTwo="16"  coef=".7886"/><qTerm  idx="1"  idxOne="2"  idxTwo="17"  coef="-.7635"/><qTerm  idx="1"  idxOne="3"  idxTwo="8"  coef="-1.0955"/><qTerm  idx="1"  idxOne="3"  idxTwo="9"  coef="-1.2755"/><qTerm  idx="1"  idxOne="3"  idxTwo="11"  coef=".2838"/><qTerm  idx="1"  idxOne="3"  idxTwo="13"  coef="-.8354"/><qTerm  idx="1"  idxOne="3"  idxTwo="14"  coef="-1.4653"/><qTerm  idx="1"  idxOne="3"  idxTwo="15"  coef="-.6073"/><qTerm  idx="1"  idxOne="3"  idxTwo="17"  coef="1.2473"/><qTerm  idx="1"  idxOne="4"  idxTwo="5"  coef=".9151"/><qTerm  idx="1"  idxOne="4"  idxTwo="6"  coef="-1.2099"/><qTerm  idx="1"  idxOne="4"  idxTwo="7"  coef="-.5666"/><qTerm  idx="1"  idxOne="4"  idxTwo="8"  coef="-1.7173"/><qTerm  idx="1"  idxOne="4"  idxTwo="11"  coef="-.5846"/><qTerm  idx="1"  idxOne="4"  idxTwo="12"  coef="1.4771"/><qTerm  idx="1"  idxOne="4"  idxTwo="14"  coef="1.9026"/><qTerm  idx="1"  idxOne="4"  idxTwo="15"  coef="1.7229"/><qTerm  idx="1"  idxOne="4"  idxTwo="17"  coef="-.2396"/><qTerm  idx="1"  idxOne="4"  idxTwo="19"  coef=".7162"/><qTerm  idx="1"  idxOne="5"  idxTwo="6"  coef="-1.4968"/><qTerm  idx="1"  idxOne="5"  idxTwo="9"  coef="-.9244"/><qTerm  idx="1"  idxOne="5"  idxTwo="10"  coef="-.4024"/><qTerm  idx="1"  idxOne="5"  idxTwo="12"  coef="-.46"/><qTerm  idx="1"  idxOne="5"  idxTwo="16"  coef="1.8066"/><qTerm  idx="1"  idxOne="5"  idxTwo="19"  coef="1.6171"/><qTerm  idx="1"  idxOne="6"  idxTwo="9"  coef="-.3091"/><qTerm  idx="1"  idxOne="6"  idxTwo="10"  coef="-1.188"/><qTerm  idx="1"  idxOne="6"  idxTwo="13"  coef="-1.1578"/><qTerm  idx="1"  idxOne="6"  idxTwo="18"  coef="-1.706"/><qTerm  idx="1"  idxOne="7"  idxTwo="7"  coef=".7312"/><qTerm  idx="1"  idxOne="7"  idxTwo="12"  coef="1.0278"/><qTerm  idx="1"  idxOne="7"  idxTwo="14"  coef="-1.2472"/><qTerm  idx="1"  idxOne="7"  idxTwo="15"  coef="-2.82e-2"/><qTerm  idx="1"  idxOne="7"  idxTwo="16"  coef="-1.9517"/><qTerm  idx="1"  idxOne="7"  idxTwo="18"  coef="5.83e-2"/><qTerm  idx="1"  idxOne="8"  idxTwo="8"  coef=".871"/><qTerm  idx="1"  idxOne="8"  idxTwo="9"  coef="1.1959"/><qTerm  idx="1"  idxOne="8"  idxTwo="10"  coef="-1.6765"/><qTerm  idx="1"  idxOne="8"  idxTwo="11"  coef=".3826"/><qTerm  idx="1"  idxOne="8"  idxTwo="12"  coef=".1619"/><qTerm  idx="1"  idxOne="8"  idxTwo="13"  coef="-.1676"/><qTerm  idx="1"  idxOne="8"  idxTwo="14"  coef="-1.7587"/><qTerm  idx="1"  idxOne="8"  idxTwo="17"  coef=".7265"/><qTerm  idx="1"  idxOne="8"  idxTwo="18"  coef="-1.0403"/><qTerm  idx="1"  idxOne="9"  idxTwo="9"  coef="-.736"/><qTerm  idx="1"  idxOne="9"  idxTwo="10"  coef="-.4517"/><qTerm  idx="1"  idxOne="9"  idxTwo="11"  coef="-1.4655"/><qTerm  idx="1"  idxOne="9"  idxTwo="15"  coef="1.54e-2"/><qTerm  idx="1"  idxOne="9"  idxTwo="16"  coef="1.069"/><qTerm  idx="1"  idxOne="9"  idxTwo="17"  coef="-1.7556"/><qTerm  idx="1"  idxOne="9"  idxTwo="18"  coef="1.5781"/><qTerm  idx="1"  idxOne="10"  idxTwo="10"  coef="1.1748"/><qTerm  idx="1"  idxOne="10"  idxTwo="15"  coef="-1.7485"/><qTerm  idx="1"  idxOne="10"  idxTwo="16"  coef="-1.4288"/><qTerm  idx="1"  idxOne="10"  idxTwo="17"  coef="-.5771"/><qTerm  idx="1"  idxOne="11"  idxTwo="12"  coef="-1.3576"/><qTerm  idx="1"  idxOne="11"  idxTwo="13"  coef="1.7014"/><qTerm  idx="1"  idxOne="11"  idxTwo="15"  coef="-.987"/><qTerm  idx="1"  idxOne="11"  idxTwo="16"  coef="-9.75e-2"/><qTerm  idx="1"  idxOne="12"  idxTwo="12"  coef="1.1195"/><qTerm  idx="1"  idxOne="12"  idxTwo="13"  coef="-1.7835"/><qTerm  idx="1"  idxOne="12"  idxTwo="14"  coef="-1.4599"/><qTerm  idx="1"  idxOne="12"  idxTwo="18"  coef="-1.5934"/><qTerm  idx="1"  idxOne="13"  idxTwo="14"  coef=".3305"/><qTerm  idx="1"  idxOne="13"  idxTwo="15"  coef="-.246"/><qTerm  idx="1"  idxOne="13"  idxTwo="17"  coef="1.5648"/><qTerm  idx="1"  idxOne="13"  idxTwo="18"  coef="-1.1257"/><qTerm  idx="1"  idxOne="14"  idxTwo="15"  coef="-.6859"/><qTerm  idx="1"  idxOne="14"  idxTwo="16"  coef=".7552"/><qTerm  idx="1"  idxOne="14"  idxTwo="18"  coef="1.2819"/><qTerm  idx="1"  idxOne="15"  idxTwo="15"  coef="-1.5754"/><qTerm  idx="1"  idxOne="15"  idxTwo="17"  coef="-1.2112"/><qTerm  idx="1"  idxOne="15"  idxTwo="18"  coef="-1.6179"/><qTerm  idx="1"  idxOne="16"  idxTwo="16"  coef="-1.7349"/><qTerm  idx="1"  idxOne="16"  idxTwo="18"  coef="-.3771"/><qTerm  idx="1"  idxOne="17"  idxTwo="18"  coef=".9016"/><qTerm  idx="1"  idxOne="17"  idxTwo="19"  coef=".3302"/><qTerm  idx="1"  idxOne="18"  idxTwo="18"  coef="1.4313"/><qTerm  idx="1"  idxOne="18"  idxTwo="19"  coef="-1.2041"/><qTerm  idx="2"  idxOne="0"  idxTwo="0"  coef="-.7131"/><qTerm  idx="2"  idxOne="0"  idxTwo="2"  coef="-.7957"/><qTerm  idx="2"  idxOne="0"  idxTwo="5"  coef="-1.6693"/><qTerm  idx="2"  idxOne="0"  idxTwo="6"  coef=".5878"/><qTerm  idx="2"  idxOne="0"  idxTwo="8"  coef="-.9555"/><qTerm  idx="2"  idxOne="0"  idxTwo="10"  coef="-1.644"/><qTerm  idx="2"  idxOne="0"  idxTwo="14"  coef="-.7326"/><qTerm  idx="2"  idxOne="0"  idxTwo="17"  coef="-.2585"/><qTerm  idx="2"  idxOne="1"  idxTwo="1"  coef="-1.0223"/><qTerm  idx="2"  idxOne="1"  idxTwo="3"  coef=".7144"/><qTerm  idx="2"  idxOne="1"  idxTwo="4"  coef=".7805"/><qTerm  idx="2"  idxOne="1"  idxTwo="5"  coef="-.2651"/><qTerm  idx="2"  idxOne="1"  idxTwo="6"  coef="1.5483"/><qTerm  idx="2"  idxOne="1"  idxTwo="10"  coef="-1.2752"/><qTerm  idx="2"  idxOne="1"  idxTwo="12"  coef="-.1546"/><qTerm  idx="2"  idxOne="1"  idxTwo="14"  coef="-.1661"/><qTerm  idx="2"  idxOne="1"  idxTwo="15"  coef="-3.34e-2"/><qTerm  idx="2"  idxOne="1"  idxTwo="16"  coef="-1.755"/><qTerm  idx="2"  idxOne="1"  idxTwo="19"  coef="1.1264"/><qTerm  idx="2"  idxOne="2"  idxTwo="2"  coef="1.5007"/><qTerm  idx="2"  idxOne="2"  idxTwo="4"  coef=".8022"/><qTerm  idx="2"  idxOne="2"  idxTwo="9"  coef="-.8085"/><qTerm  idx="2"  idxOne="2"  idxTwo="10"  coef="-.4574"/><qTerm  idx="2"  idxOne="2"  idxTwo="12"  coef=".6608"/><qTerm  idx="2"  idxOne="2"  idxTwo="13"  coef="-1.0974"/><qTerm  idx="2"  idxOne="2"  idxTwo="17"  coef="-1.6064"/><qTerm  idx="2"  idxOne="2"  idxTwo="18"  coef=".4173"/><qTerm  idx="2"  idxOne="3"  idxTwo="4"  coef="-1.6805"/><qTerm  idx="2"  idxOne="3"  idxTwo="5"  coef="-1.4394"/><qTerm  idx="2"  idxOne="3"  idxTwo="6"  coef="-.5517"/><qTerm  idx="2"  idxOne="3"  idxTwo="9"  coef=".286"/><qTerm  idx="2"  idxOne="3"  idxTwo="11"  coef="-.8376"/><qTerm  idx="2"  idxOne="3"  idxTwo="12"  coef="-1.6074"/><qTerm  idx="2"  idxOne="3"  idxTwo="13"  coef="-1.6547"/><qTerm  idx="2"  idxOne="3"  idxTwo="16"  coef=".5433"/><qTerm  idx="2"  idxOne="3"  idxTwo="18"  coef="1.0766"/><qTerm  idx="2"  idxOne="4"  idxTwo="4"  coef="1.9828"/><qTerm  idx="2"  idxOne="4"  idxTwo="6"  coef="1.1715"/><qTerm  idx="2"  idxOne="4"  idxTwo="7"  coef="-1.7961"/><qTerm  idx="2"  idxOne="4"  idxTwo="9"  coef="-1.26"/><qTerm  idx="2"  idxOne="4"  idxTwo="10"  coef="-.1541"/><qTerm  idx="2"  idxOne="4"  idxTwo="15"  coef="1.1467"/><qTerm  idx="2"  idxOne="4"  idxTwo="16"  coef="1.0982"/><qTerm  idx="2"  idxOne="4"  idxTwo="18"  coef=".2455"/><qTerm  idx="2"  idxOne="5"  idxTwo="6"  coef=".4236"/><qTerm  idx="2"  idxOne="5"  idxTwo="7"  coef="-.7712"/><qTerm  idx="2"  idxOne="5"  idxTwo="8"  coef="-.1661"/><qTerm  idx="2"  idxOne="5"  idxTwo="10"  coef=".6694"/><qTerm  idx="2"  idxOne="5"  idxTwo="14"  coef="1.3186"/><qTerm  idx="2"  idxOne="6"  idxTwo="7"  coef=".5209"/><qTerm  idx="2"  idxOne="6"  idxTwo="9"  coef="-.4315"/><qTerm  idx="2"  idxOne="6"  idxTwo="11"  coef="-.9255"/><qTerm  idx="2"  idxOne="6"  idxTwo="12"  coef="1.5617"/><qTerm  idx="2"  idxOne="6"  idxTwo="13"  coef="-.3275"/><qTerm  idx="2"  idxOne="6"  idxTwo="15"  coef="-5.35e-2"/><qTerm  idx="2"  idxOne="6"  idxTwo="16"  coef="-1.9831"/><qTerm  idx="2"  idxOne="6"  idxTwo="17"  coef="-.1626"/><qTerm  idx="2"  idxOne="7"  idxTwo="10"  coef="-.4595"/><qTerm  idx="2"  idxOne="7"  idxTwo="11"  coef="1.7194"/><qTerm  idx="2"  idxOne="7"  idxTwo="14"  coef=".4303"/><qTerm  idx="2"  idxOne="7"  idxTwo="15"  coef=".9421"/><qTerm  idx="2"  idxOne="7"  idxTwo="16"  coef="1.4156"/><qTerm  idx="2"  idxOne="7"  idxTwo="17"  coef=".3294"/><qTerm  idx="2"  idxOne="8"  idxTwo="9"  coef="-1.3427"/><qTerm  idx="2"  idxOne="8"  idxTwo="12"  coef=".4796"/><qTerm  idx="2"  idxOne="8"  idxTwo="13"  coef=".615"/><qTerm  idx="2"  idxOne="8"  idxTwo="14"  coef=".5887"/><qTerm  idx="2"  idxOne="8"  idxTwo="18"  coef="-.4157"/><qTerm  idx="2"  idxOne="8"  idxTwo="19"  coef="-1.3482"/><qTerm  idx="2"  idxOne="9"  idxTwo="9"  coef="-.1875"/><qTerm  idx="2"  idxOne="9"  idxTwo="10"  coef="-1.2231"/><qTerm  idx="2"  idxOne="9"  idxTwo="12"  coef=".5685"/><qTerm  idx="2"  idxOne="9"  idxTwo="13"  coef="-.232"/><qTerm  idx="2"  idxOne="9"  idxTwo="14"  coef=".426"/><qTerm  idx="2"  idxOne="9"  idxTwo="15"  coef="-1.4583"/><qTerm  idx="2"  idxOne="9"  idxTwo="16"  coef="-.8066"/><qTerm  idx="2"  idxOne="9"  idxTwo="17"  coef=".6366"/><qTerm  idx="2"  idxOne="9"  idxTwo="18"  coef="-1.6291"/><qTerm  idx="2"  idxOne="10"  idxTwo="10"  coef="1.0789"/><qTerm  idx="2"  idxOne="10"  idxTwo="11"  coef="-1.5077"/><qTerm  idx="2"  idxOne="10"  idxTwo="12"  coef="1.0046"/><qTerm  idx="2"  idxOne="10"  idxTwo="13"  coef="-1.9572"/><qTerm  idx="2"  idxOne="10"  idxTwo="15"  coef="-.2648"/><qTerm  idx="2"  idxOne="10"  idxTwo="17"  coef="1.084"/><qTerm  idx="2"  idxOne="11"  idxTwo="11"  coef="-.2673"/><qTerm  idx="2"  idxOne="11"  idxTwo="12"  coef="-1.2389"/><qTerm  idx="2"  idxOne="11"  idxTwo="13"  coef="1.513"/><qTerm  idx="2"  idxOne="11"  idxTwo="14"  coef="-1.565"/><qTerm  idx="2"  idxOne="11"  idxTwo="15"  coef="1.2239"/><qTerm  idx="2"  idxOne="11"  idxTwo="17"  coef="1.6496"/><qTerm  idx="2"  idxOne="12"  idxTwo="12"  coef=".2562"/><qTerm  idx="2"  idxOne="12"  idxTwo="14"  coef=".2138"/><qTerm  idx="2"  idxOne="12"  idxTwo="16"  coef="1.1823"/><qTerm  idx="2"  idxOne="12"  idxTwo="17"  coef="1.2539"/><qTerm  idx="2"  idxOne="13"  idxTwo="15"  coef="-1.2368"/><qTerm  idx="2"  idxOne="13"  idxTwo="16"  coef="-1.1663"/><qTerm  idx="2"  idxOne="13"  idxTwo="17"  coef=".2443"/><qTerm  idx="2"  idxOne="14"  idxTwo="15"  coef="-.6386"/><qTerm  idx="2"  idxOne="14"  idxTwo="16"  coef="-.3967"/><qTerm  idx="2"  idxOne="15"  idxTwo="16"  coef="-.3049"/><qTerm  idx="2"  idxOne="15"  idxTwo="17"  coef="-.8482"/><qTerm  idx="2"  idxOne="16"  idxTwo="17"  coef="-.116"/><qTerm  idx="2"  idxOne="16"  idxTwo="19"  coef="-.6028"/><qTerm  idx="2"  idxOne="17"  idxTwo="18"  coef="-.6367"/><qTerm  idx="2"  idxOne="18"  idxTwo="19"  coef="-.2371"/><qTerm  idx="3"  idxOne="0"  idxTwo="4"  coef="-1.466"/><qTerm  idx="3"  idxOne="0"  idxTwo="11"  coef="-1.4087"/><qTerm  idx="3"  idxOne="0"  idxTwo="13"  coef=".3568"/><qTerm  idx="3"  idxOne="0"  idxTwo="17"  coef="1.294"/><qTerm  idx="3"  idxOne="0"  idxTwo="18"  coef="-1.4189"/><qTerm  idx="3"  idxOne="1"  idxTwo="2"  coef="-.7134"/><qTerm  idx="3"  idxOne="1"  idxTwo="3"  coef="-1.1717"/><qTerm  idx="3"  idxOne="1"  idxTwo="4"  coef="-.29"/><qTerm  idx="3"  idxOne="1"  idxTwo="5"  coef=".6477"/><qTerm  idx="3"  idxOne="1"  idxTwo="8"  coef=".3296"/><qTerm  idx="3"  idxOne="1"  idxTwo="11"  coef="1.9426"/><qTerm  idx="3"  idxOne="1"  idxTwo="13"  coef=".1675"/><qTerm  idx="3"  idxOne="1"  idxTwo="14"  coef="1.7913"/><qTerm  idx="3"  idxOne="1"  idxTwo="15"  coef=".8596"/><qTerm  idx="3"  idxOne="1"  idxTwo="16"  coef="1.062"/><qTerm  idx="3"  idxOne="1"  idxTwo="17"  coef="-.6984"/><qTerm  idx="3"  idxOne="1"  idxTwo="19"  coef="-.5268"/><qTerm  idx="3"  idxOne="2"  idxTwo="3"  coef="-.6762"/><qTerm  idx="3"  idxOne="2"  idxTwo="4"  coef="-1.2246"/><qTerm  idx="3"  idxOne="2"  idxTwo="5"  coef="-1.1441"/><qTerm  idx="3"  idxOne="2"  idxTwo="7"  coef="-1.7798"/><qTerm  idx="3"  idxOne="2"  idxTwo="8"  coef=".2579"/><qTerm  idx="3"  idxOne="2"  idxTwo="12"  coef="-.5171"/><qTerm  idx="3"  idxOne="2"  idxTwo="16"  coef=".3542"/><qTerm  idx="3"  idxOne="2"  idxTwo="17"  coef="-.2925"/><qTerm  idx="3"  idxOne="3"  idxTwo="3"  coef="-1.5752"/><qTerm  idx="3"  idxOne="3"  idxTwo="4"  coef=".5093"/><qTerm  idx="3"  idxOne="3"  idxTwo="5"  coef="1.6849"/><qTerm  idx="3"  idxOne="3"  idxTwo="6"  coef="1.5418"/><qTerm  idx="3"  idxOne="3"  idxTwo="7"  coef="-1.6404"/><qTerm  idx="3"  idxOne="3"  idxTwo="8"  coef="1.2597"/><qTerm  idx="3"  idxOne="3"  idxTwo="9"  coef="-1.6727"/><qTerm  idx="3"  idxOne="3"  idxTwo="11"  coef="-1.7607"/><qTerm  idx="3"  idxOne="3"  idxTwo="14"  coef="-.8928"/><qTerm  idx="3"  idxOne="3"  idxTwo="15"  coef="1.5993"/><qTerm  idx="3"  idxOne="3"  idxTwo="16"  coef="-1.0685"/><qTerm  idx="3"  idxOne="3"  idxTwo="17"  coef="-.8147"/><qTerm  idx="3"  idxOne="3"  idxTwo="18"  coef="-.8627"/><qTerm  idx="3"  idxOne="3"  idxTwo="19"  coef="-.4327"/><qTerm  idx="3"  idxOne="4"  idxTwo="4"  coef=".4038"/><qTerm  idx="3"  idxOne="4"  idxTwo="5"  coef="1.7775"/><qTerm  idx="3"  idxOne="4"  idxTwo="6"  coef=".4722"/><qTerm  idx="3"  idxOne="4"  idxTwo="8"  coef="-1.9263"/><qTerm  idx="3"  idxOne="4"  idxTwo="10"  coef=".2102"/><qTerm  idx="3"  idxOne="4"  idxTwo="14"  coef="-1.936"/><qTerm  idx="3"  idxOne="4"  idxTwo="15"  coef=".1677"/><qTerm  idx="3"  idxOne="4"  idxTwo="18"  coef=".7058"/><qTerm  idx="3"  idxOne="5"  idxTwo="5"  coef="-1.0468"/><qTerm  idx="3"  idxOne="5"  idxTwo="6"  coef="-.9589"/><qTerm  idx="3"  idxOne="5"  idxTwo="7"  coef="1.6402"/><qTerm  idx="3"  idxOne="5"  idxTwo="9"  coef="1.6565"/><qTerm  idx="3"  idxOne="5"  idxTwo="11"  coef=".5721"/><qTerm  idx="3"  idxOne="5"  idxTwo="18"  coef="-.3991"/><qTerm  idx="3"  idxOne="5"  idxTwo="19"  coef="-.8408"/><qTerm  idx="3"  idxOne="6"  idxTwo="6"  coef="1.7918"/><qTerm  idx="3"  idxOne="6"  idxTwo="9"  coef=".264"/><qTerm  idx="3"  idxOne="6"  idxTwo="10"  coef=".1686"/><qTerm  idx="3"  idxOne="6"  idxTwo="11"  coef=".8375"/><qTerm  idx="3"  idxOne="6"  idxTwo="12"  coef=".4908"/><qTerm  idx="3"  idxOne="6"  idxTwo="14"  coef="-1.8266"/><qTerm  idx="3"  idxOne="6"  idxTwo="16"  coef="-.1396"/><qTerm  idx="3"  idxOne="6"  idxTwo="17"  coef="-.9516"/><qTerm  idx="3"  idxOne="7"  idxTwo="7"  coef="-.1875"/><qTerm  idx="3"  idxOne="7"  idxTwo="8"  coef="-.9495"/><qTerm  idx="3"  idxOne="7"  idxTwo="9"  coef="5.82e-2"/><qTerm  idx="3"  idxOne="7"  idxTwo="12"  coef="1.419"/><qTerm  idx="3"  idxOne="7"  idxTwo="13"  coef="-.2968"/><qTerm  idx="3"  idxOne="7"  idxTwo="14"  coef="1.9942"/><qTerm  idx="3"  idxOne="7"  idxTwo="15"  coef=".3617"/><qTerm  idx="3"  idxOne="7"  idxTwo="16"  coef="-1.0462"/><qTerm  idx="3"  idxOne="8"  idxTwo="11"  coef="-1.369"/><qTerm  idx="3"  idxOne="8"  idxTwo="12"  coef="-1.8974"/><qTerm  idx="3"  idxOne="8"  idxTwo="16"  coef="6.89e-2"/><qTerm  idx="3"  idxOne="8"  idxTwo="17"  coef=".2226"/><qTerm  idx="3"  idxOne="8"  idxTwo="18"  coef=".7783"/><qTerm  idx="3"  idxOne="8"  idxTwo="19"  coef=".9277"/><qTerm  idx="3"  idxOne="9"  idxTwo="13"  coef="1.2613"/><qTerm  idx="3"  idxOne="9"  idxTwo="16"  coef="-.5374"/><qTerm  idx="3"  idxOne="9"  idxTwo="17"  coef=".4397"/><qTerm  idx="3"  idxOne="9"  idxTwo="18"  coef="-.4347"/><qTerm  idx="3"  idxOne="10"  idxTwo="10"  coef=".9489"/><qTerm  idx="3"  idxOne="10"  idxTwo="13"  coef="1.8038"/><qTerm  idx="3"  idxOne="10"  idxTwo="15"  coef="-1.2979"/><qTerm  idx="3"  idxOne="10"  idxTwo="16"  coef="-.2492"/><qTerm  idx="3"  idxOne="10"  idxTwo="17"  coef="1.4908"/><qTerm  idx="3"  idxOne="11"  idxTwo="13"  coef="1.8285"/><qTerm  idx="3"  idxOne="11"  idxTwo="17"  coef="-1.7686"/><qTerm  idx="3"  idxOne="12"  idxTwo="12"  coef="-.3464"/><qTerm  idx="3"  idxOne="12"  idxTwo="13"  coef="-1.985"/><qTerm  idx="3"  idxOne="12"  idxTwo="16"  coef="-.349"/><qTerm  idx="3"  idxOne="12"  idxTwo="18"  coef=".6268"/><qTerm  idx="3"  idxOne="13"  idxTwo="13"  coef="-.8461"/><qTerm  idx="3"  idxOne="13"  idxTwo="16"  coef="1.0137"/><qTerm  idx="3"  idxOne="13"  idxTwo="17"  coef="1.6522"/><qTerm  idx="3"  idxOne="14"  idxTwo="15"  coef="1.4089"/><qTerm  idx="3"  idxOne="14"  idxTwo="17"  coef="-1.9894"/><qTerm  idx="3"  idxOne="14"  idxTwo="18"  coef=".552"/><qTerm  idx="3"  idxOne="15"  idxTwo="15"  coef="-1.4384"/><qTerm  idx="3"  idxOne="15"  idxTwo="16"  coef="-.5711"/><qTerm  idx="3"  idxOne="15"  idxTwo="17"  coef="1.1542"/><qTerm  idx="3"  idxOne="15"  idxTwo="19"  coef="-.9589"/><qTerm  idx="3"  idxOne="16"  idxTwo="17"  coef="-.8584"/><qTerm  idx="3"  idxOne="16"  idxTwo="18"  coef="1.3713"/><qTerm  idx="3"  idxOne="16"  idxTwo="19"  coef="1.1499"/><qTerm  idx="3"  idxOne="17"  idxTwo="19"  coef="-.1472"/></quadraticCoefficients></instanceData></osil>
